p cnf 432 1332
133 134 135 136 137 138 0
139 140 141 142 143 144 0
145 146 147 148 149 150 0
151 152 153 154 155 156 0
157 158 159 160 161 162 0
163 164 165 166 167 168 0
169 170 171 172 173 174 0
175 176 177 178 179 180 0
181 182 183 184 185 186 0
187 188 189 190 191 192 0
193 194 195 196 197 198 0
199 200 201 202 203 204 0
205 206 207 208 209 210 0
211 212 213 214 215 216 0
-1 -217 0
-1 -218 0
-1 -219 0
-7 217 0
-7 -218 0
-7 -219 0
-13 -217 0
-13 218 0
-13 -219 0
-19 217 0
-19 218 0
-19 -219 0
-25 -217 0
-25 -218 0
-25 219 0
-31 217 0
-31 -218 0
-31 219 0
-2 -220 0
-2 -221 0
-2 -222 0
-8 220 0
-8 -221 0
-8 -222 0
-14 -220 0
-14 221 0
-14 -222 0
-20 220 0
-20 221 0
-20 -222 0
-26 -220 0
-26 -221 0
-26 222 0
-32 220 0
-32 -221 0
-32 222 0
-3 -223 0
-3 -224 0
-3 -225 0
-9 223 0
-9 -224 0
-9 -225 0
-15 -223 0
-15 224 0
-15 -225 0
-21 223 0
-21 224 0
-21 -225 0
-27 -223 0
-27 -224 0
-27 225 0
-33 223 0
-33 -224 0
-33 225 0
-4 -226 0
-4 -227 0
-4 -228 0
-10 226 0
-10 -227 0
-10 -228 0
-16 -226 0
-16 227 0
-16 -228 0
-22 226 0
-22 227 0
-22 -228 0
-28 -226 0
-28 -227 0
-28 228 0
-34 226 0
-34 -227 0
-34 228 0
-5 -229 0
-5 -230 0
-5 -231 0
-11 229 0
-11 -230 0
-11 -231 0
-17 -229 0
-17 230 0
-17 -231 0
-23 229 0
-23 230 0
-23 -231 0
-29 -229 0
-29 -230 0
-29 231 0
-35 229 0
-35 -230 0
-35 231 0
-6 -232 0
-6 -233 0
-6 -234 0
-12 232 0
-12 -233 0
-12 -234 0
-18 -232 0
-18 233 0
-18 -234 0
-24 232 0
-24 233 0
-24 -234 0
-30 -232 0
-30 -233 0
-30 234 0
-36 232 0
-36 -233 0
-36 234 0
-37 -235 0
-37 -236 0
-37 -237 0
-43 235 0
-43 -236 0
-43 -237 0
-49 -235 0
-49 236 0
-49 -237 0
-55 235 0
-55 236 0
-55 -237 0
-61 -235 0
-61 -236 0
-61 237 0
-67 235 0
-67 -236 0
-67 237 0
-38 -238 0
-38 -239 0
-38 -240 0
-44 238 0
-44 -239 0
-44 -240 0
-50 -238 0
-50 239 0
-50 -240 0
-56 238 0
-56 239 0
-56 -240 0
-62 -238 0
-62 -239 0
-62 240 0
-68 238 0
-68 -239 0
-68 240 0
-39 -241 0
-39 -242 0
-39 -243 0
-45 241 0
-45 -242 0
-45 -243 0
-51 -241 0
-51 242 0
-51 -243 0
-57 241 0
-57 242 0
-57 -243 0
-63 -241 0
-63 -242 0
-63 243 0
-69 241 0
-69 -242 0
-69 243 0
-40 -244 0
-40 -245 0
-40 -246 0
-46 244 0
-46 -245 0
-46 -246 0
-52 -244 0
-52 245 0
-52 -246 0
-58 244 0
-58 245 0
-58 -246 0
-64 -244 0
-64 -245 0
-64 246 0
-70 244 0
-70 -245 0
-70 246 0
-41 -247 0
-41 -248 0
-41 -249 0
-47 247 0
-47 -248 0
-47 -249 0
-53 -247 0
-53 248 0
-53 -249 0
-59 247 0
-59 248 0
-59 -249 0
-65 -247 0
-65 -248 0
-65 249 0
-71 247 0
-71 -248 0
-71 249 0
-42 -250 0
-42 -251 0
-42 -252 0
-48 250 0
-48 -251 0
-48 -252 0
-54 -250 0
-54 251 0
-54 -252 0
-60 250 0
-60 251 0
-60 -252 0
-66 -250 0
-66 -251 0
-66 252 0
-72 250 0
-72 -251 0
-72 252 0
-73 -253 0
-73 -254 0
-73 -255 0
-79 253 0
-79 -254 0
-79 -255 0
-85 -253 0
-85 254 0
-85 -255 0
-91 253 0
-91 254 0
-91 -255 0
-97 -253 0
-97 -254 0
-97 255 0
-103 253 0
-103 -254 0
-103 255 0
-74 -256 0
-74 -257 0
-74 -258 0
-80 256 0
-80 -257 0
-80 -258 0
-86 -256 0
-86 257 0
-86 -258 0
-92 256 0
-92 257 0
-92 -258 0
-98 -256 0
-98 -257 0
-98 258 0
-104 256 0
-104 -257 0
-104 258 0
-75 -259 0
-75 -260 0
-75 -261 0
-81 259 0
-81 -260 0
-81 -261 0
-87 -259 0
-87 260 0
-87 -261 0
-93 259 0
-93 260 0
-93 -261 0
-99 -259 0
-99 -260 0
-99 261 0
-105 259 0
-105 -260 0
-105 261 0
-76 -262 0
-76 -263 0
-76 -264 0
-82 262 0
-82 -263 0
-82 -264 0
-88 -262 0
-88 263 0
-88 -264 0
-94 262 0
-94 263 0
-94 -264 0
-100 -262 0
-100 -263 0
-100 264 0
-106 262 0
-106 -263 0
-106 264 0
-77 -265 0
-77 -266 0
-77 -267 0
-83 265 0
-83 -266 0
-83 -267 0
-89 -265 0
-89 266 0
-89 -267 0
-95 265 0
-95 266 0
-95 -267 0
-101 -265 0
-101 -266 0
-101 267 0
-107 265 0
-107 -266 0
-107 267 0
-78 -268 0
-78 -269 0
-78 -270 0
-84 268 0
-84 -269 0
-84 -270 0
-90 -268 0
-90 269 0
-90 -270 0
-96 268 0
-96 269 0
-96 -270 0
-102 -268 0
-102 -269 0
-102 270 0
-108 268 0
-108 -269 0
-108 270 0
-109 -271 0
-109 -272 0
-109 -273 0
-115 271 0
-115 -272 0
-115 -273 0
-121 -271 0
-121 272 0
-121 -273 0
-127 271 0
-127 272 0
-127 -273 0
-133 -271 0
-133 -272 0
-133 273 0
-139 271 0
-139 -272 0
-139 273 0
-110 -274 0
-110 -275 0
-110 -276 0
-116 274 0
-116 -275 0
-116 -276 0
-122 -274 0
-122 275 0
-122 -276 0
-128 274 0
-128 275 0
-128 -276 0
-134 -274 0
-134 -275 0
-134 276 0
-140 274 0
-140 -275 0
-140 276 0
-111 -277 0
-111 -278 0
-111 -279 0
-117 277 0
-117 -278 0
-117 -279 0
-123 -277 0
-123 278 0
-123 -279 0
-129 277 0
-129 278 0
-129 -279 0
-135 -277 0
-135 -278 0
-135 279 0
-141 277 0
-141 -278 0
-141 279 0
-112 -280 0
-112 -281 0
-112 -282 0
-118 280 0
-118 -281 0
-118 -282 0
-124 -280 0
-124 281 0
-124 -282 0
-130 280 0
-130 281 0
-130 -282 0
-136 -280 0
-136 -281 0
-136 282 0
-142 280 0
-142 -281 0
-142 282 0
-113 -283 0
-113 -284 0
-113 -285 0
-119 283 0
-119 -284 0
-119 -285 0
-125 -283 0
-125 284 0
-125 -285 0
-131 283 0
-131 284 0
-131 -285 0
-137 -283 0
-137 -284 0
-137 285 0
-143 283 0
-143 -284 0
-143 285 0
-114 -286 0
-114 -287 0
-114 -288 0
-120 286 0
-120 -287 0
-120 -288 0
-126 -286 0
-126 287 0
-126 -288 0
-132 286 0
-132 287 0
-132 -288 0
-138 -286 0
-138 -287 0
-138 288 0
-144 286 0
-144 -287 0
-144 288 0
-145 -289 0
-145 -290 0
-145 -291 0
-151 289 0
-151 -290 0
-151 -291 0
-157 -289 0
-157 290 0
-157 -291 0
-163 289 0
-163 290 0
-163 -291 0
-169 -289 0
-169 -290 0
-169 291 0
-175 289 0
-175 -290 0
-175 291 0
-146 -292 0
-146 -293 0
-146 -294 0
-152 292 0
-152 -293 0
-152 -294 0
-158 -292 0
-158 293 0
-158 -294 0
-164 292 0
-164 293 0
-164 -294 0
-170 -292 0
-170 -293 0
-170 294 0
-176 292 0
-176 -293 0
-176 294 0
-147 -295 0
-147 -296 0
-147 -297 0
-153 295 0
-153 -296 0
-153 -297 0
-159 -295 0
-159 296 0
-159 -297 0
-165 295 0
-165 296 0
-165 -297 0
-171 -295 0
-171 -296 0
-171 297 0
-177 295 0
-177 -296 0
-177 297 0
-148 -298 0
-148 -299 0
-148 -300 0
-154 298 0
-154 -299 0
-154 -300 0
-160 -298 0
-160 299 0
-160 -300 0
-166 298 0
-166 299 0
-166 -300 0
-172 -298 0
-172 -299 0
-172 300 0
-178 298 0
-178 -299 0
-178 300 0
-149 -301 0
-149 -302 0
-149 -303 0
-155 301 0
-155 -302 0
-155 -303 0
-161 -301 0
-161 302 0
-161 -303 0
-167 301 0
-167 302 0
-167 -303 0
-173 -301 0
-173 -302 0
-173 303 0
-179 301 0
-179 -302 0
-179 303 0
-150 -304 0
-150 -305 0
-150 -306 0
-156 304 0
-156 -305 0
-156 -306 0
-162 -304 0
-162 305 0
-162 -306 0
-168 304 0
-168 305 0
-168 -306 0
-174 -304 0
-174 -305 0
-174 306 0
-180 304 0
-180 -305 0
-180 306 0
-181 -307 0
-181 -308 0
-181 -309 0
-187 307 0
-187 -308 0
-187 -309 0
-193 -307 0
-193 308 0
-193 -309 0
-199 307 0
-199 308 0
-199 -309 0
-205 -307 0
-205 -308 0
-205 309 0
-211 307 0
-211 -308 0
-211 309 0
-182 -310 0
-182 -311 0
-182 -312 0
-188 310 0
-188 -311 0
-188 -312 0
-194 -310 0
-194 311 0
-194 -312 0
-200 310 0
-200 311 0
-200 -312 0
-206 -310 0
-206 -311 0
-206 312 0
-212 310 0
-212 -311 0
-212 312 0
-183 -313 0
-183 -314 0
-183 -315 0
-189 313 0
-189 -314 0
-189 -315 0
-195 -313 0
-195 314 0
-195 -315 0
-201 313 0
-201 314 0
-201 -315 0
-207 -313 0
-207 -314 0
-207 315 0
-213 313 0
-213 -314 0
-213 315 0
-184 -316 0
-184 -317 0
-184 -318 0
-190 316 0
-190 -317 0
-190 -318 0
-196 -316 0
-196 317 0
-196 -318 0
-202 316 0
-202 317 0
-202 -318 0
-208 -316 0
-208 -317 0
-208 318 0
-214 316 0
-214 -317 0
-214 318 0
-185 -319 0
-185 -320 0
-185 -321 0
-191 319 0
-191 -320 0
-191 -321 0
-197 -319 0
-197 320 0
-197 -321 0
-203 319 0
-203 320 0
-203 -321 0
-209 -319 0
-209 -320 0
-209 321 0
-215 319 0
-215 -320 0
-215 321 0
-186 -322 0
-186 -323 0
-186 -324 0
-192 322 0
-192 -323 0
-192 -324 0
-198 -322 0
-198 323 0
-198 -324 0
-204 322 0
-204 323 0
-204 -324 0
-210 -322 0
-210 -323 0
-210 324 0
-216 322 0
-216 -323 0
-216 324 0
-1 -325 0
-1 -326 0
-1 -327 0
-37 325 0
-37 -326 0
-37 -327 0
-73 -325 0
-73 326 0
-73 -327 0
-109 325 0
-109 326 0
-109 -327 0
-145 -325 0
-145 -326 0
-145 327 0
-181 325 0
-181 -326 0
-181 327 0
-2 -328 0
-2 -329 0
-2 -330 0
-38 328 0
-38 -329 0
-38 -330 0
-74 -328 0
-74 329 0
-74 -330 0
-110 328 0
-110 329 0
-110 -330 0
-146 -328 0
-146 -329 0
-146 330 0
-182 328 0
-182 -329 0
-182 330 0
-3 -331 0
-3 -332 0
-3 -333 0
-39 331 0
-39 -332 0
-39 -333 0
-75 -331 0
-75 332 0
-75 -333 0
-111 331 0
-111 332 0
-111 -333 0
-147 -331 0
-147 -332 0
-147 333 0
-183 331 0
-183 -332 0
-183 333 0
-4 -334 0
-4 -335 0
-4 -336 0
-40 334 0
-40 -335 0
-40 -336 0
-76 -334 0
-76 335 0
-76 -336 0
-112 334 0
-112 335 0
-112 -336 0
-148 -334 0
-148 -335 0
-148 336 0
-184 334 0
-184 -335 0
-184 336 0
-5 -337 0
-5 -338 0
-5 -339 0
-41 337 0
-41 -338 0
-41 -339 0
-77 -337 0
-77 338 0
-77 -339 0
-113 337 0
-113 338 0
-113 -339 0
-149 -337 0
-149 -338 0
-149 339 0
-185 337 0
-185 -338 0
-185 339 0
-6 -340 0
-6 -341 0
-6 -342 0
-42 340 0
-42 -341 0
-42 -342 0
-78 -340 0
-78 341 0
-78 -342 0
-114 340 0
-114 341 0
-114 -342 0
-150 -340 0
-150 -341 0
-150 342 0
-186 340 0
-186 -341 0
-186 342 0
-7 -343 0
-7 -344 0
-7 -345 0
-43 343 0
-43 -344 0
-43 -345 0
-79 -343 0
-79 344 0
-79 -345 0
-115 343 0
-115 344 0
-115 -345 0
-151 -343 0
-151 -344 0
-151 345 0
-187 343 0
-187 -344 0
-187 345 0
-8 -346 0
-8 -347 0
-8 -348 0
-44 346 0
-44 -347 0
-44 -348 0
-80 -346 0
-80 347 0
-80 -348 0
-116 346 0
-116 347 0
-116 -348 0
-152 -346 0
-152 -347 0
-152 348 0
-188 346 0
-188 -347 0
-188 348 0
-9 -349 0
-9 -350 0
-9 -351 0
-45 349 0
-45 -350 0
-45 -351 0
-81 -349 0
-81 350 0
-81 -351 0
-117 349 0
-117 350 0
-117 -351 0
-153 -349 0
-153 -350 0
-153 351 0
-189 349 0
-189 -350 0
-189 351 0
-10 -352 0
-10 -353 0
-10 -354 0
-46 352 0
-46 -353 0
-46 -354 0
-82 -352 0
-82 353 0
-82 -354 0
-118 352 0
-118 353 0
-118 -354 0
-154 -352 0
-154 -353 0
-154 354 0
-190 352 0
-190 -353 0
-190 354 0
-11 -355 0
-11 -356 0
-11 -357 0
-47 355 0
-47 -356 0
-47 -357 0
-83 -355 0
-83 356 0
-83 -357 0
-119 355 0
-119 356 0
-119 -357 0
-155 -355 0
-155 -356 0
-155 357 0
-191 355 0
-191 -356 0
-191 357 0
-12 -358 0
-12 -359 0
-12 -360 0
-48 358 0
-48 -359 0
-48 -360 0
-84 -358 0
-84 359 0
-84 -360 0
-120 358 0
-120 359 0
-120 -360 0
-156 -358 0
-156 -359 0
-156 360 0
-192 358 0
-192 -359 0
-192 360 0
-13 -361 0
-13 -362 0
-13 -363 0
-49 361 0
-49 -362 0
-49 -363 0
-85 -361 0
-85 362 0
-85 -363 0
-121 361 0
-121 362 0
-121 -363 0
-157 -361 0
-157 -362 0
-157 363 0
-193 361 0
-193 -362 0
-193 363 0
-14 -364 0
-14 -365 0
-14 -366 0
-50 364 0
-50 -365 0
-50 -366 0
-86 -364 0
-86 365 0
-86 -366 0
-122 364 0
-122 365 0
-122 -366 0
-158 -364 0
-158 -365 0
-158 366 0
-194 364 0
-194 -365 0
-194 366 0
-15 -367 0
-15 -368 0
-15 -369 0
-51 367 0
-51 -368 0
-51 -369 0
-87 -367 0
-87 368 0
-87 -369 0
-123 367 0
-123 368 0
-123 -369 0
-159 -367 0
-159 -368 0
-159 369 0
-195 367 0
-195 -368 0
-195 369 0
-16 -370 0
-16 -371 0
-16 -372 0
-52 370 0
-52 -371 0
-52 -372 0
-88 -370 0
-88 371 0
-88 -372 0
-124 370 0
-124 371 0
-124 -372 0
-160 -370 0
-160 -371 0
-160 372 0
-196 370 0
-196 -371 0
-196 372 0
-17 -373 0
-17 -374 0
-17 -375 0
-53 373 0
-53 -374 0
-53 -375 0
-89 -373 0
-89 374 0
-89 -375 0
-125 373 0
-125 374 0
-125 -375 0
-161 -373 0
-161 -374 0
-161 375 0
-197 373 0
-197 -374 0
-197 375 0
-18 -376 0
-18 -377 0
-18 -378 0
-54 376 0
-54 -377 0
-54 -378 0
-90 -376 0
-90 377 0
-90 -378 0
-126 376 0
-126 377 0
-126 -378 0
-162 -376 0
-162 -377 0
-162 378 0
-198 376 0
-198 -377 0
-198 378 0
-19 -379 0
-19 -380 0
-19 -381 0
-55 379 0
-55 -380 0
-55 -381 0
-91 -379 0
-91 380 0
-91 -381 0
-127 379 0
-127 380 0
-127 -381 0
-163 -379 0
-163 -380 0
-163 381 0
-199 379 0
-199 -380 0
-199 381 0
-20 -382 0
-20 -383 0
-20 -384 0
-56 382 0
-56 -383 0
-56 -384 0
-92 -382 0
-92 383 0
-92 -384 0
-128 382 0
-128 383 0
-128 -384 0
-164 -382 0
-164 -383 0
-164 384 0
-200 382 0
-200 -383 0
-200 384 0
-21 -385 0
-21 -386 0
-21 -387 0
-57 385 0
-57 -386 0
-57 -387 0
-93 -385 0
-93 386 0
-93 -387 0
-129 385 0
-129 386 0
-129 -387 0
-165 -385 0
-165 -386 0
-165 387 0
-201 385 0
-201 -386 0
-201 387 0
-22 -388 0
-22 -389 0
-22 -390 0
-58 388 0
-58 -389 0
-58 -390 0
-94 -388 0
-94 389 0
-94 -390 0
-130 388 0
-130 389 0
-130 -390 0
-166 -388 0
-166 -389 0
-166 390 0
-202 388 0
-202 -389 0
-202 390 0
-23 -391 0
-23 -392 0
-23 -393 0
-59 391 0
-59 -392 0
-59 -393 0
-95 -391 0
-95 392 0
-95 -393 0
-131 391 0
-131 392 0
-131 -393 0
-167 -391 0
-167 -392 0
-167 393 0
-203 391 0
-203 -392 0
-203 393 0
-24 -394 0
-24 -395 0
-24 -396 0
-60 394 0
-60 -395 0
-60 -396 0
-96 -394 0
-96 395 0
-96 -396 0
-132 394 0
-132 395 0
-132 -396 0
-168 -394 0
-168 -395 0
-168 396 0
-204 394 0
-204 -395 0
-204 396 0
-25 -397 0
-25 -398 0
-25 -399 0
-61 397 0
-61 -398 0
-61 -399 0
-97 -397 0
-97 398 0
-97 -399 0
-133 397 0
-133 398 0
-133 -399 0
-169 -397 0
-169 -398 0
-169 399 0
-205 397 0
-205 -398 0
-205 399 0
-26 -400 0
-26 -401 0
-26 -402 0
-62 400 0
-62 -401 0
-62 -402 0
-98 -400 0
-98 401 0
-98 -402 0
-134 400 0
-134 401 0
-134 -402 0
-170 -400 0
-170 -401 0
-170 402 0
-206 400 0
-206 -401 0
-206 402 0
-27 -403 0
-27 -404 0
-27 -405 0
-63 403 0
-63 -404 0
-63 -405 0
-99 -403 0
-99 404 0
-99 -405 0
-135 403 0
-135 404 0
-135 -405 0
-171 -403 0
-171 -404 0
-171 405 0
-207 403 0
-207 -404 0
-207 405 0
-28 -406 0
-28 -407 0
-28 -408 0
-64 406 0
-64 -407 0
-64 -408 0
-100 -406 0
-100 407 0
-100 -408 0
-136 406 0
-136 407 0
-136 -408 0
-172 -406 0
-172 -407 0
-172 408 0
-208 406 0
-208 -407 0
-208 408 0
-29 -409 0
-29 -410 0
-29 -411 0
-65 409 0
-65 -410 0
-65 -411 0
-101 -409 0
-101 410 0
-101 -411 0
-137 409 0
-137 410 0
-137 -411 0
-173 -409 0
-173 -410 0
-173 411 0
-209 409 0
-209 -410 0
-209 411 0
-30 -412 0
-30 -413 0
-30 -414 0
-66 412 0
-66 -413 0
-66 -414 0
-102 -412 0
-102 413 0
-102 -414 0
-138 412 0
-138 413 0
-138 -414 0
-174 -412 0
-174 -413 0
-174 414 0
-210 412 0
-210 -413 0
-210 414 0
-31 -415 0
-31 -416 0
-31 -417 0
-67 415 0
-67 -416 0
-67 -417 0
-103 -415 0
-103 416 0
-103 -417 0
-139 415 0
-139 416 0
-139 -417 0
-175 -415 0
-175 -416 0
-175 417 0
-211 415 0
-211 -416 0
-211 417 0
-32 -418 0
-32 -419 0
-32 -420 0
-68 418 0
-68 -419 0
-68 -420 0
-104 -418 0
-104 419 0
-104 -420 0
-140 418 0
-140 419 0
-140 -420 0
-176 -418 0
-176 -419 0
-176 420 0
-212 418 0
-212 -419 0
-212 420 0
-33 -421 0
-33 -422 0
-33 -423 0
-69 421 0
-69 -422 0
-69 -423 0
-105 -421 0
-105 422 0
-105 -423 0
-141 421 0
-141 422 0
-141 -423 0
-177 -421 0
-177 -422 0
-177 423 0
-213 421 0
-213 -422 0
-213 423 0
-34 -424 0
-34 -425 0
-34 -426 0
-70 424 0
-70 -425 0
-70 -426 0
-106 -424 0
-106 425 0
-106 -426 0
-142 424 0
-142 425 0
-142 -426 0
-178 -424 0
-178 -425 0
-178 426 0
-214 424 0
-214 -425 0
-214 426 0
-35 -427 0
-35 -428 0
-35 -429 0
-71 427 0
-71 -428 0
-71 -429 0
-107 -427 0
-107 428 0
-107 -429 0
-143 427 0
-143 428 0
-143 -429 0
-179 -427 0
-179 -428 0
-179 429 0
-215 427 0
-215 -428 0
-215 429 0
-36 -430 0
-36 -431 0
-36 -432 0
-72 430 0
-72 -431 0
-72 -432 0
-108 -430 0
-108 431 0
-108 -432 0
-144 430 0
-144 431 0
-144 -432 0
-180 -430 0
-180 -431 0
-180 432 0
-216 430 0
-216 -431 0
-216 432 0
1 2 3 4 5 6 0
7 8 9 10 11 12 0
13 14 15 16 17 18 0
19 20 21 22 23 24 0
25 26 27 28 29 30 0
31 32 33 34 35 36 0
37 38 39 40 41 42 0
43 44 45 46 47 48 0
49 50 51 52 53 54 0
55 56 57 58 59 60 0
61 62 63 64 65 66 0
67 68 69 70 71 72 0
73 74 75 76 77 78 0
79 80 81 82 83 84 0
85 86 87 88 89 90 0
91 92 93 94 95 96 0
97 98 99 100 101 102 0
103 104 105 106 107 108 0
109 110 111 112 113 114 0
115 116 117 118 119 120 0
121 122 123 124 125 126 0
127 128 129 130 131 132 0
